(set-logic QF_BV)
(declare-fun _substvar_685_ () (_ BitVec 31))
(declare-fun _substvar_805_ () (_ BitVec 31))
(declare-fun _substvar_3045_ () Bool)
(declare-fun _substvar_2868_ () Bool)
(declare-fun _substvar_3005_ () Bool)
(declare-fun _substvar_658_ () (_ BitVec 31))
(declare-fun _substvar_2893_ () Bool)
(declare-fun _substvar_344_ () (_ BitVec 31))
(declare-fun _substvar_3003_ () Bool)
(declare-fun _substvar_2665_ () Bool)
(declare-fun _substvar_2852_ () Bool)
(declare-fun _substvar_342_ () (_ BitVec 31))
(declare-fun _substvar_3057_ () Bool)
(assert (and true true true true true true true true true true true true true true true true true true true true true true true true true true true true true true true true true true true true true true true true true true true true true true true true true true true true true true true true true true true true true true true true true true true true true true true true true true true true true true true true true true true true true true true true true true true true true true true true true true true true true true true true true true true true true true true true true true true true true _substvar_3005_ true true true true true true true true true true true true true true true true true true true true true true (= _substvar_658_ (_ bv0 31)) (ite _substvar_2665_ (= _substvar_685_ (_ bv0 31)) (= _substvar_685_ (concat (_ bv0 30) (bvxor (_ bv0 1) ((_ extract 27 27) _substvar_658_))))) (ite _substvar_2852_ (= _substvar_805_ (_ bv0 31)) (= _substvar_805_ (concat ((_ extract 29 0) _substvar_685_) (bvxor ((_ extract 30 30) _substvar_685_) ((_ extract 27 27) _substvar_685_))))) (ite _substvar_2868_ (= _substvar_342_ (_ bv0 31)) (= _substvar_342_ (concat ((_ extract 29 0) _substvar_805_) (_ bv0 1)))) true true true true true true true true true true true true true true true true true true true true true true true true true true true true true true true true true true true true true true true true true true true true true true true true true true true true true true true true true true true true true _substvar_2893_ true true true true true true true true true true true true true true true true true true true true true true true true true true true true true true true true true true true true true true true true true true true true true true true true true true true true true true true true true true true true true true true true true true true true true true true true true true true true true true true true true true true true true true true true true true true true true true true true true true true true true true true true true true true true true true true true true true true true true true true true true true true true true true true true true true true true true true true true true true true true true true true true true true true true true true true true true true true true true true true true true true true true true true true true true true true true true true true true true true true true true true true true true true true true true true true true true true true true true true true true true true _substvar_3045_ true _substvar_3057_ true true true true true true true true _substvar_3003_ (= (or false (= _substvar_344_ _substvar_342_) false false false false false false false false false false false false false false (= _substvar_342_ (_ bv0 31)) false false false false false false false false false false false) false)))
(check-sat)
(exit)
